10 5 2
4 2 1 70 3 50 2 1 100 4 81 2 4 12 2 81 2 3 76 5 12
3 2 2 77 3 24 2 1 27 5 87 2 1 59 2 99
7 2 3 49 4 28 2 3 55 5 22 2 4 56 3 54 2 1 97 3 94 2 4 41 2 15 2 3 35 4 97 2 1 57 4 65
3 2 1 51 2 22 2 5 60 2 51 2 2 72 4 72
7 2 2 70 5 80 2 1 16 2 80 2 1 60 2 57 2 5 14 3 67 2 1 15 4 36 2 1 17 2 44 2 5 28 2 22
4 2 4 78 1 94 2 1 100 4 78 2 3 76 2 66 2 5 29 1 47
3 2 4 66 5 43 2 4 23 3 40 2 1 65 2 58
3 2 5 99 3 20 2 2 100 5 92 2 4 54 5 29
6 2 1 63 2 69 2 5 64 2 21 2 3 48 5 33 2 3 48 4 24 2 3 36 4 52 2 3 47 2 11
4 2 5 60 3 63 2 5 46 3 97 2 2 28 3 51 2 2 66 3 20
